c Generated with `cnfgen`
c (C) 2012-2019 Massimo Lauria <massimo.lauria@uniroma1.it>
c https://massimolauria.net/cnfgen
c
c COMMAND LINE: cnfgen --seed 1 -o ./tseitin/tseitin.grid4.s1.cnf tseitin --grid 4 4 --savegraph ./tseitin/tseitin.grid4.s1.graph --graphformat dot --charge randomeven
c
p cnf 24 72
1 2 0
-1 -2 0
1 3 4 0
1 -3 -4 0
-1 3 -4 0
-1 -3 4 0
3 5 -6 0
3 -5 6 0
-3 5 6 0
-3 -5 -6 0
5 -7 0
-5 7 0
2 8 9 0
2 -8 -9 0
-2 8 -9 0
-2 -8 9 0
4 8 10 11 0
4 8 -10 -11 0
4 -8 10 -11 0
4 -8 -10 11 0
-4 8 10 -11 0
-4 8 -10 11 0
-4 -8 10 11 0
-4 -8 -10 -11 0
6 10 12 13 0
6 10 -12 -13 0
6 -10 12 -13 0
6 -10 -12 13 0
-6 10 12 -13 0
-6 10 -12 13 0
-6 -10 12 13 0
-6 -10 -12 -13 0
7 12 -14 0
7 -12 14 0
-7 12 14 0
-7 -12 -14 0
9 15 -16 0
9 -15 16 0
-9 15 16 0
-9 -15 -16 0
11 15 17 -18 0
11 15 -17 18 0
11 -15 17 18 0
11 -15 -17 -18 0
-11 15 17 18 0
-11 15 -17 -18 0
-11 -15 17 -18 0
-11 -15 -17 18 0
13 17 19 -20 0
13 17 -19 20 0
13 -17 19 20 0
13 -17 -19 -20 0
-13 17 19 20 0
-13 17 -19 -20 0
-13 -17 19 -20 0
-13 -17 -19 20 0
14 19 -21 0
14 -19 21 0
-14 19 21 0
-14 -19 -21 0
16 -22 0
-16 22 0
18 22 -23 0
18 -22 23 0
-18 22 23 0
-18 -22 -23 0
20 23 -24 0
20 -23 24 0
-20 23 24 0
-20 -23 -24 0
21 24 0
-21 -24 0
